param set_len = 28;
param target = 941412544;
param values := [0] 104808177 [1] 115821158 [2] 36412531 [3] 91975296 [4] 50312135 [5] 95627039 [6] 108235512 [7] 127834677 [8] 78795344 [9] 22173359 [10] 47321786 [11] 8702168 [12] 122114402 [13] 65081131 [14] 102190633 [15] 65143726 [16] 69248169 [17] 114362452 [18] 55667447 [19] 12599488 [20] 33981632 [21] 70699446 [22] 36905910 [23] 98900619 [24] 70959490 [25] 52902636 [26] 23778571 [27] 11381586 ;
